0 0 0 0
0 1 0 0
0 2 2 0
0 3 0 0
0 4 1 11
0 5 0 4
0 6 0 4
0 7 0 6
0 8 0 12
0 9 1 5
0 10 0 6
0 11 1 17
0 12 0 12
0 13 0 17
0 14 0 34
0 15 2 23
0 16 0 2
0 17 0 18
0 18 0 18
0 19 0 24
0 20 0 16
0 21 2 9
0 22 0 27
0 23 0 33
0 24 2 18
0 25 2 32
0 26 2 23
0 27 0 40
0 28 2 36
0 29 0 38
0 30 0 42
0 31 0 43
